CMPL model generation - running

CMPL version: 1.11.0
Authors: Thomas Schleiff, Mike Steglich
Distributed under the GPLv3 

create model instance ...
write model instance ...
CMPL model generation - finished

Solver - running


Welcome to IBM(R) ILOG(R) CPLEX(R) Interactive Optimizer 12.7.1.0
  with Simplex, Mixed Integer & Barrier Optimizers
5725-A06 5725-A29 5724-Y48 5724-Y49 5724-Y54 5724-Y55 5655-Y21
Copyright IBM Corp. 1988, 2017.  All Rights Reserved.

Type 'help' for a list of available commands.
Type 'help' followed by a command name for more
information on commands.

CPLEX> Specified objective sense: MINIMIZE
Selected objective  name:  line[1]
Selected RHS        name:  RHS
Selected bound      name:  BOUND
Problem '/tmp/cmpl.T24787.mps' read.
Read time = 0.08 sec. (8.20 ticks)
CPLEX> CPXPARAM_Read_APIEncoding                        "UTF-8"
Tried aggregator 3 times.
MIP Presolve eliminated 18874 rows and 29986 columns.
MIP Presolve modified 340 coefficients.
Aggregator did 936 substitutions.
Reduced MIP has 2545 rows, 3671 columns, and 10711 nonzeros.
Reduced MIP has 3503 binaries, 0 generals, 0 SOSs, and 0 indicators.
Presolve time = 0.09 sec. (41.31 ticks)
Found incumbent of value 2676.789451 after 0.20 sec. (79.12 ticks)
Probing fixed 44 vars, tightened 0 bounds.
Probing time = 0.03 sec. (4.96 ticks)
Tried aggregator 1 time.
MIP Presolve eliminated 0 rows and 44 columns.
MIP Presolve modified 342 coefficients.
Reduced MIP has 2545 rows, 3627 columns, and 10623 nonzeros.
Reduced MIP has 3627 binaries, 0 generals, 0 SOSs, and 0 indicators.
Presolve time = 0.02 sec. (10.31 ticks)
Probing time = 0.01 sec. (2.72 ticks)
Clique table members: 6538.
MIP emphasis: balance optimality and feasibility.
MIP search method: dynamic search.
Parallel mode: none, using 1 thread.
Root relaxation solution time = 0.07 sec. (11.40 ticks)

        Nodes                                         Cuts/
   Node  Left     Objective  IInf  Best Integer    Best Bound    ItCnt     Gap

*     0+    0                         2676.7895       -2.0281           100.08%
*     0     0      integral     0      817.4416      817.4416      658    0.00%
Elapsed time = 0.36 sec. (116.81 ticks, tree = 0.00 MB, solutions = 2)

Root node processing (before b&c):
  Real time             =    0.36 sec. (118.11 ticks)
Sequential b&c:
  Real time             =    0.00 sec. (0.00 ticks)
                          ------------
Total (root+branch&cut) =    0.36 sec. (118.11 ticks)

Solution pool: 2 solutions saved.

MIP - Integer optimal solution:  Objective =  8.1744161600e+02
Solution time =    0.36 sec.  Iterations = 658  Nodes = 0
Deterministic time = 118.20 ticks  (325.69 ticks/sec)

CPLEX> Incumbent solution written to file '/tmp/cmpl.T24787.gsol'.
CPLEX> 
CMPL: Time used for model generation: 1 seconds
CMPL: Time used for solving the model: 1 seconds


Solution written to ASCII file: results/output_generated_conf_0.9/2016-06-06-4/fair-nonlinear.sol

Solver - finished
